p cnf 2807 2580
c ind 921 922 923 924 925 926 927 928 929 930 0
c ind 931 932 933 934 935 936 937 938 939 940 0
c ind 941 942 943 944 945 946 947 948 949 950 0
c ind 951 952 953 954 955 956 957 958 959 960 0
c ind 961 962 963 964 965 966 967 968 969 970 0
c ind 1137 1138 1139 1140 1141 1142 1143 1144 1145 1146 0
c ind 1147 1148 1149 1150 1151 1152 1153 1154 1155 1156 0
c ind 1157 1158 1159 1160 1161 1162 1163 1164 1165 1166 0
c ind 1167 1089 1168 1018 1019 1169 1020 1170 1021 1171 0
c ind 1335 1336 1337 1338 1339 1340 1341 1342 1343 1344 0
c ind 1345 1346 1347 1348 1349 1172 1173 1350 1351 1174 0
c ind 1175 1352 1353 1354 1355 1356 1176 971 972 973 0
c ind 974 975 976 1177 977 978 1178 979 980 981 0
c ind 1179 1017 1180 982 983 984 985 986 987 988 0
c ind 1181 989 990 991 1182 1183 992 1313 1314 1315 0
c ind 1184 1185 1316 1317 1318 1319 1320 1321 1322 1323 0
c ind 1324 1325 1326 1327 1328 1329 1186 1330 1187 1331 0
c ind 1332 1333 1188 1334 1189 1067 1068 1069 1070 1071 0
c ind 1072 1073 1190 1074 1090 1075 1076 1077 1191 1078 0
c ind 1192 1079 1080 1081 1193 1194 1082 1083 1084 1085 0
c ind 1086 1087 1088 993 994 1195 1196 995 996 997 0
c ind 998 999 1197 1000 1001 1002 1003 1004 1005 1006 0
c ind 1007 1008 1198 1009 1010 1011 1199 1012 1200 1013 0
c ind 1014 1201 1092 1093 1202 1094 1095 1091 1096 1097 0
c ind 1098 1099 1100 1101 1102 1103 1104 1105 1106 1107 0
c ind 1108 1109 1110 1111 1112 1113 1114 1115 1116 1117 0
c ind 1118 1119 1120 1121 1122 1123 1124 1125 1126 1127 0
c ind 1128 1129 1130 1131 1132 1133 1134 1135 1136 1022 0
c ind 1023 1024 1025 1026 1027 1028 1029 1030 1031 1032 0
c ind 1033 1034 1035 1036 1037 1038 1039 1040 1041 1042 0
c ind 1043 1044 1045 1046 1047 1048 1049 1050 1051 1015 0
c ind 1052 1053 1054 1055 1056 1057 1058 1059 1060 1061 0
c ind 1062 1063 1064 1065 1066 875 876 877 878 879 0
c ind 880 881 882 883 884 885 886 887 888 889 0
c ind 890 891 892 893 894 895 896 897 898 1016 0
c ind 899 900 901 902 903 904 905 906 907 908 0
c ind 909 910 911 912 913 914 915 916 917 918 0
c ind 919 1486 1487 1488 1489 1490 1491 1492 1493 1494 0
c ind 1495 1496 1497 1498 1499 1500 1501 1502 1503 1504 0
c ind 1505 1506 1507 1508 1509 1510 1511 1512 1513 1514 0
c ind 1515 1516 1517 1518 1519 1520 1521 1522 1523 1524 0
c ind 1525 1526 1527 1528 1529 1530 1531 1532 1533 1534 0
c ind 920 0
730 -731 -831 0
730 -731 842 0
730 -731 757 0
-730 731 0
-757 831 -730 -842 0
731 -732 -746 -756 0
-731 732 0
-731 746 0
-731 756 0
732 733 -737 0
-732 -733 0
-732 737 0
-734 -971 733 0
-736 -971 733 0
-735 -971 733 0
-733 971 0
-733 734 735 736 0
734 -977 978 979 0
-734 977 0
-734 -979 0
-734 -978 0
735 977 980 981 0
-735 -977 0
-735 -981 0
-735 -980 0
736 -972 973 974 0
-736 972 0
-736 -974 0
-736 -973 0
737 738 742 -1077 -1317 0
-737 1317 0
-737 -742 0
-737 1077 0
-737 -738 0
739 1078 738 1079 1080 0
-738 -739 0
-738 -1080 0
-738 -1078 0
-738 -1079 0
739 740 -1083 0
739 740 741 -1084 0
-739 -740 0
-739 -741 1083 0
-739 1083 1084 0
740 1081 -1082 0
-740 -1081 0
-740 1082 0
741 993 994 0
741 993 1001 1002 0
-741 -993 0
-741 -994 -1001 0
-741 -994 -1002 0
743 1318 742 1319 1320 0
-742 -743 0
-742 -1320 0
-742 -1318 0
-742 -1319 0
743 744 -1323 0
743 744 745 -1324 0
-743 -744 0
-743 -745 1323 0
-743 1323 1324 0
744 1321 -1322 0
-744 -1321 0
-744 1322 0
745 1329 1330 0
745 1069 1070 1329 0
-745 -1329 0
-745 -1070 -1330 0
-745 -1069 -1330 0
746 -749 1060 0
746 -749 1053 0
746 747 -749 0
-746 749 0
-747 -1053 -746 -1060 0
747 -748 -1061 1062 0
-747 1061 0
-747 -1062 0
-747 748 0
748 875 1064 -1065 -1066 0
-748 -875 0
-748 1066 0
-748 1065 0
-748 -1064 0
749 750 -753 755 0
749 750 -753 1089 0
-749 753 0
-749 -750 0
-755 -1089 -749 0
-751 -752 750 -1042 0
-751 -752 750 -1043 0
-750 752 0
-750 751 0
-750 1042 1043 0
751 1045 1046 1047 1048 0
-751 -1048 0
-751 -1047 0
-751 -1045 0
-751 -1046 0
752 -1039 -1040 -1041 1044 0
-752 1041 0
-752 -1044 0
-752 1039 0
-752 1040 0
753 -754 -964 -1492 -1521 0
-753 754 0
-753 964 0
-753 1521 0
-753 1492 0
754 -897 -935 0
-754 897 0
-754 935 0
755 1126 1127 1128 0
-755 -1126 0
-755 -1128 0
-755 -1127 0
756 -1015 -1091 0
756 1016 -1090 0
756 1016 -1091 0
756 -1015 -1090 0
1015 -1016 -756 0
1090 1091 -756 0
757 -758 -820 -823 -1300 0
757 -758 -820 823 1300 0
-757 758 0
-757 -823 1300 0
-757 820 0
-757 823 -1300 0
758 -759 -779 0
758 -779 1291 0
-758 779 0
-758 759 -1291 0
759 775 -753 0
759 760 -753 -764 0
753 -759 0
-759 -760 -775 0
-759 764 -775 0
760 -762 -1032 1089 0
760 761 1032 1089 0
-760 -1089 0
-760 762 -1032 0
-760 -761 1032 0
761 -1181 -732 0
-761 1181 0
732 -761 0
762 -763 1182 0
761 762 763 0
-762 -763 -1182 0
-761 -762 763 0
763 1113 -1115 0
-763 -1113 0
-763 1115 0
764 767 -768 0
762 764 -765 -768 0
-764 768 0
-762 -764 -767 0
-764 765 -767 0
765 766 -1126 0
765 766 -1127 0
765 766 -1128 0
-765 -766 0
-765 1126 1127 1128 0
766 1134 -1136 0
-766 -1134 0
-766 1136 0
766 767 -1089 0
767 -1089 1183 0
-767 1089 0
-766 -767 -1183 0
768 769 750 0
-750 -768 0
-768 -769 0
769 -770 -1053 0
769 771 -1053 0
-769 1053 0
-769 770 -771 0
770 1056 -1058 0
-770 -1056 0
-770 1058 0
771 773 1060 0
771 772 -1060 0
771 -774 -1060 0
-771 -773 1060 0
-771 -772 774 -1060 0
772 -1061 1062 0
-772 1061 0
-772 -1062 0
773 892 -894 0
-773 -892 0
-773 894 0
748 774 -1053 0
-774 1053 0
-748 -774 0
773 775 777 0
775 776 777 0
775 777 1185 0
-775 -777 0
-773 -775 -776 -1185 0
776 -1053 1060 0
-776 1053 0
-776 -1060 0
-770 777 -778 -1184 0
-777 1184 0
770 -777 0
-777 778 0
-771 778 -1053 0
-778 1053 0
771 -778 0
779 780 -791 0
779 -791 1208 0
-779 791 0
-779 -780 -1208 0
780 787 789 -1053 0
780 781 787 789 0
-780 -789 0
-780 -787 0
-780 -781 1053 0
781 782 750 786 0
781 782 750 -785 0
-750 -781 0
-781 -782 0
-781 785 -786 0
782 783 -1089 1169 0
766 782 783 -1089 0
-782 1089 0
-782 -783 0
-766 -782 -1169 0
-765 783 784 0
765 -783 0
-783 -784 0
-763 784 1168 0
732 763 784 0
763 784 1016 0
-763 -784 -1168 0
763 -784 -732 -1016 0
785 -1016 -732 1032 0
763 785 -732 -1016 0
-785 1016 0
732 -785 0
-763 -785 -1032 0
763 786 1089 0
786 1089 1168 0
786 1032 1089 0
-786 -1089 0
-763 -786 -1032 -1168 0
773 -776 787 -788 0
-773 -776 787 -1171 0
776 -787 0
773 -787 788 0
-773 -787 1171 0
-770 788 -1170 0
770 -781 788 0
-770 -788 1170 0
770 781 -788 0
-788 789 -790 0
788 -789 0
-789 790 0
747 790 -1053 -1060 0
-790 1053 0
-790 1060 0
-747 -790 0
791 -819 -792 1271 0
791 819 -792 -1271 0
-791 792 0
-791 -819 -1271 0
-791 819 1271 0
792 800 801 -809 0
792 -793 801 -809 0
-792 809 0
-792 -801 0
793 -800 -792 0
773 -776 793 -794 0
-773 -776 793 -1175 0
776 -793 0
773 -793 794 0
-773 -793 1175 0
-770 794 -1174 0
770 794 -795 0
-770 -794 1174 0
770 -794 795 0
795 796 750 799 0
795 796 750 -798 0
-750 -795 0
-795 -796 0
-795 798 -799 0
796 -797 -1032 1089 0
732 796 1032 1089 0
-796 -1089 0
-796 797 -1032 0
-796 1032 -732 0
732 763 797 0
-763 797 1172 0
763 -797 -732 0
-763 -797 -1172 0
-765 797 798 0
765 -798 0
-797 -798 0
766 799 -1089 0
799 -1089 1173 0
-799 1089 0
-766 -799 -1173 0
794 800 -1053 0
790 795 800 0
794 795 800 0
790 800 -1053 0
-790 -794 -800 0
-795 -800 1053 0
803 1053 801 0
770 802 801 803 0
-801 -803 0
-801 -802 -1053 0
-770 -801 -1053 0
-773 802 1060 -1189 0
773 -802 0
-802 1189 0
-802 -1060 0
803 804 750 808 0
803 804 750 -807 0
-750 -803 0
-803 -804 0
-803 807 -808 0
804 -806 -1032 1089 0
804 805 1032 1089 0
-804 -1089 0
-804 806 -1032 0
-804 -805 1032 0
805 -1015 -732 0
-805 1015 0
732 -805 0
-763 806 1186 0
763 805 806 0
-763 -806 -1186 0
763 -805 -806 0
-765 806 807 0
765 -807 0
-806 -807 0
766 808 -1089 0
808 -1089 1187 0
-808 1089 0
-766 -808 -1187 0
809 -810 -812 -817 0
809 812 -814 -817 0
-809 817 0
810 -812 -809 0
812 814 -809 0
810 -1167 -1197 0
810 811 -1197 0
-810 1197 0
-810 -811 1167 0
811 -1159 -737 1161 0
-811 1159 0
-811 -1161 0
737 -811 0
812 1014 -1032 0
812 813 1014 0
812 1014 -1033 0
-812 -1014 0
-812 -813 1032 1033 0
813 1034 1035 1036 1089 0
-813 -1089 0
-813 -1036 0
-813 -1034 0
-813 -1035 0
814 816 -737 -1165 0
814 815 -737 816 0
737 -814 0
-814 -816 0
-814 -815 1165 0
815 -1159 1161 0
-815 1159 0
-815 -1161 0
-733 816 1159 0
816 1159 1196 1336 0
-816 -1159 0
-816 -1196 733 0
-816 -1336 733 0
-802 817 -746 0
769 817 -746 0
817 -818 -746 0
746 -817 0
-769 802 -817 818 0
-771 818 -1188 0
-818 1188 0
771 -818 0
-811 819 -746 0
746 -819 0
811 -819 0
820 821 -1291 0
759 820 821 0
-820 -821 0
-759 -820 1291 0
821 -822 1208 0
-821 -1208 0
-821 822 0
780 822 -753 0
753 -822 0
-780 -822 0
823 829 -753 0
823 824 -753 -827 0
753 -823 0
-823 -824 -829 0
-823 827 -829 0
824 -826 -1032 1089 0
824 825 1032 1089 0
-824 -1089 0
-824 826 -1032 0
-824 -825 1032 0
825 -1190 -732 0
-825 1190 0
732 -825 0
-763 826 1191 0
763 825 826 0
-763 -826 -1191 0
763 -825 -826 0
-768 827 828 0
-765 -768 826 827 0
768 -827 0
765 -827 -828 0
-826 -827 -828 0
766 828 -1089 0
828 -1089 1192 0
-828 1089 0
-766 -828 -1192 0
773 829 830 0
776 829 830 0
829 830 1194 0
-829 -830 0
-773 -776 -829 -1194 0
-770 -778 830 -1193 0
-830 1193 0
770 -830 0
778 -830 0
831 -832 1308 0
831 832 -1308 0
-831 -832 -1308 0
-831 832 1308 0
832 -833 -753 0
832 841 -753 0
753 -832 0
-832 833 -841 0
773 -776 833 -834 0
-773 -776 833 -1202 0
776 -833 0
773 -833 834 0
-773 -833 1202 0
-770 834 -1201 0
770 834 -835 0
-770 -834 1201 0
770 -834 835 0
835 836 750 840 0
835 836 750 -839 0
-750 -835 0
-835 -836 0
-835 839 -840 0
836 -838 -1032 1089 0
836 837 1032 1089 0
-836 -1089 0
-836 838 -1032 0
-836 -837 1032 0
837 -1198 -732 0
-837 1198 0
732 -837 0
-763 838 1199 0
763 837 838 0
-763 -838 -1199 0
763 -837 -838 0
-765 838 839 0
765 -839 0
-838 -839 0
766 840 -1089 0
840 -1089 1200 0
-840 1089 0
-766 -840 -1200 0
834 841 -1053 0
790 835 841 0
834 835 841 0
790 841 -1053 0
-790 -834 -841 0
-835 -841 1053 0
842 -843 -1286 0
842 843 1286 0
-842 -843 1286 0
-842 843 -1286 0
843 -844 -753 0
843 852 -753 0
753 -843 0
-843 844 -852 0
773 -776 844 -845 0
-773 -776 844 -1180 0
776 -844 0
773 -844 845 0
-773 -844 1180 0
-770 845 -1179 0
770 845 -846 0
-770 -845 1179 0
770 -845 846 0
846 847 750 851 0
846 847 750 -850 0
-750 -846 0
-846 -847 0
-846 850 -851 0
847 -849 -1032 1089 0
847 848 1032 1089 0
-847 -1089 0
-847 849 -1032 0
-847 -848 1032 0
848 -1176 -732 0
-848 1176 0
732 -848 0
-763 849 1177 0
763 848 849 0
-763 -849 -1177 0
763 -848 -849 0
-765 849 850 0
765 -850 0
-849 -850 0
766 851 -1089 0
851 -1089 1178 0
-851 1089 0
-766 -851 -1178 0
845 852 -1053 0
790 846 852 0
845 846 852 0
790 852 -1053 0
-790 -845 -852 0
-846 -852 1053 0
859 -731 853 0
854 -731 853 0
858 -731 853 0
731 -853 0
-853 -854 -858 -859 0
854 -792 -855 2070 0
-843 854 -792 -855 0
-854 855 0
792 -854 0
843 -2070 -854 0
823 855 856 -857 0
855 856 -857 -2084 0
-855 857 0
-855 -856 0
-823 2084 -855 0
-819 -2055 856 0
819 2055 856 0
-819 -856 2055 0
819 -856 -2055 0
-759 857 -2075 2084 0
759 857 2075 2084 0
759 -823 857 2075 0
-759 -823 857 -2075 0
759 -2075 -857 0
-759 2075 -857 0
823 -2084 -857 0
-822 843 858 -1992 0
822 843 858 1992 0
822 858 1992 -2070 0
-822 858 -1992 -2070 0
822 -1992 -858 0
-822 1992 -858 0
-843 2070 -858 0
-832 859 -2092 0
832 859 2092 0
-832 2092 -859 0
832 -2092 -859 0
-831 860 -731 0
757 860 -731 0
-843 860 -731 0
731 -860 0
-757 831 843 -860 0
-823 861 -731 0
861 862 -731 0
820 861 -731 0
731 -861 0
-820 823 -861 -862 0
-758 831 862 0
758 -862 0
-831 -862 0
-759 863 -731 0
863 864 -731 0
-831 863 -731 0
731 -863 0
759 831 -863 -864 0
-779 821 864 0
779 -864 0
-821 -864 0
-832 865 -731 0
864 865 -731 0
731 -865 0
832 -864 -865 0
-822 866 -731 0
791 866 -731 0
731 -866 0
-791 822 -866 0
819 867 -731 0
792 867 -731 0
731 -867 0
-819 -867 -792 0
792 868 -731 0
731 -868 0
-792 -868 0
-831 869 -731 0
843 869 -731 0
757 869 -731 0
731 -869 0
-757 831 -843 -869 0
862 870 -731 0
820 870 -731 0
823 870 -731 0
731 -870 0
-820 -823 -862 -870 0
-831 871 -731 0
864 871 -731 0
759 871 -731 0
731 -871 0
-759 831 -864 -871 0
864 872 -731 0
832 872 -731 0
731 -872 0
-832 -864 -872 0
822 873 -731 0
791 873 -731 0
731 -873 0
-791 -822 -873 0
-819 874 -731 0
792 874 -731 0
731 -874 0
819 -874 -792 0
1 730 0
-1 -730 0
2 730 0
-2 -730 0
3 853 0
-3 -853 0
97 -860 0
-97 860 0
98 -861 0
-98 861 0
99 -863 0
-99 863 0
100 -865 0
-100 865 0
102 -866 0
-102 866 0
120 -867 0
-120 867 0
269 -868 0
-269 868 0
460 -869 0
-460 869 0
461 -870 0
-461 870 0
462 -871 0
-462 871 0
463 -872 0
-463 872 0
465 -873 0
-465 873 0
483 -874 0
-483 874 0
632 -868 0
-632 868 0
-97 -460 2537 0
97 -2537 0
460 -2537 0
97 -1286 0
-97 1286 0
-98 -461 2538 0
98 -2538 0
461 -2538 0
98 -1300 0
-98 1300 0
-99 -462 2539 0
99 -2539 0
462 -2539 0
99 -1291 0
-99 1291 0
-100 -463 2540 0
100 -2540 0
463 -2540 0
100 -1308 0
-100 1308 0
-102 -465 2542 0
102 -2542 0
465 -2542 0
102 -1208 0
-102 1208 0
-120 -483 2560 0
120 -2560 0
483 -2560 0
120 -1271 0
-120 1271 0
-269 -632 2709 0
269 -2709 0
632 -2709 0
269 -1609 0
-269 1609 0
-1 0
-2 0
3 0
4 0
5 0
6 0
7 0
8 0
9 0
10 0
11 0
12 0
13 0
14 0
15 0
16 0
17 0
18 0
19 0
20 0
21 0
22 0
23 0
24 0
25 0
26 0
27 0
28 0
29 0
30 0
31 0
32 0
33 0
34 0
35 0
36 0
37 0
38 0
39 0
40 0
41 0
42 0
43 0
44 0
45 0
46 0
47 0
48 0
49 0
50 0
51 0
52 0
53 0
54 0
55 0
56 0
57 0
58 0
59 0
60 0
61 0
62 0
63 0
64 0
65 0
66 0
67 0
68 0
69 0
70 0
71 0
72 0
73 0
74 0
75 0
76 0
77 0
78 0
79 0
80 0
81 0
82 0
83 0
84 0
85 0
86 0
87 0
88 0
89 0
90 0
91 0
92 0
93 0
94 0
95 0
96 0
101 0
103 0
104 0
105 0
106 0
107 0
108 0
109 0
110 0
111 0
112 0
113 0
114 0
115 0
116 0
117 0
118 0
119 0
121 0
122 0
123 0
124 0
125 0
126 0
127 0
128 0
129 0
130 0
131 0
132 0
133 0
134 0
135 0
136 0
137 0
138 0
139 0
140 0
141 0
142 0
143 0
144 0
145 0
146 0
147 0
148 0
149 0
150 0
151 0
152 0
153 0
154 0
155 0
156 0
157 0
158 0
159 0
160 0
161 0
162 0
163 0
164 0
165 0
166 0
167 0
168 0
169 0
170 0
171 0
172 0
173 0
174 0
175 0
176 0
177 0
178 0
179 0
180 0
181 0
182 0
183 0
184 0
185 0
186 0
187 0
188 0
189 0
190 0
191 0
192 0
193 0
194 0
195 0
196 0
197 0
198 0
199 0
200 0
201 0
202 0
203 0
204 0
205 0
206 0
207 0
208 0
209 0
210 0
211 0
212 0
213 0
214 0
-215 0
216 0
217 0
218 0
219 0
220 0
221 0
222 0
223 0
224 0
225 0
226 0
227 0
228 0
229 0
230 0
231 0
232 0
233 0
234 0
235 0
236 0
237 0
238 0
239 0
240 0
241 0
242 0
243 0
244 0
245 0
246 0
247 0
248 0
249 0
250 0
251 0
252 0
253 0
254 0
255 0
256 0
257 0
258 0
259 0
260 0
261 0
262 0
263 0
264 0
265 0
266 0
267 0
268 0
-269 0
270 0
271 0
272 0
273 0
274 0
275 0
276 0
277 0
-278 0
279 0
280 0
281 0
282 0
283 0
284 0
285 0
286 0
287 0
288 0
289 0
290 0
291 0
292 0
293 0
294 0
295 0
296 0
297 0
298 0
299 0
300 0
301 0
302 0
303 0
304 0
305 0
-306 0
307 0
308 0
309 0
310 0
311 0
312 0
313 0
314 0
315 0
316 0
317 0
318 0
319 0
320 0
321 0
322 0
323 0
324 0
325 0
326 0
327 0
328 0
329 0
330 0
331 0
332 0
333 0
334 0
335 0
336 0
337 0
338 0
339 0
340 0
341 0
342 0
343 0
344 0
345 0
346 0
347 0
348 0
349 0
350 0
351 0
352 0
353 0
354 0
355 0
356 0
357 0
358 0
359 0
360 0
361 0
362 0
363 0
364 0
365 0
366 0
-367 0
-368 0
-369 0
-370 0
-371 0
-372 0
-373 0
-374 0
-375 0
-376 0
-377 0
-378 0
-379 0
-380 0
-381 0
-382 0
-383 0
-384 0
-385 0
-386 0
-387 0
-388 0
-389 0
-390 0
-391 0
-392 0
-393 0
-394 0
-395 0
-396 0
-397 0
-398 0
-399 0
-400 0
-401 0
-402 0
-403 0
-404 0
-405 0
-406 0
-407 0
-408 0
-409 0
-410 0
-411 0
-412 0
-413 0
-414 0
-415 0
-416 0
-417 0
-418 0
-419 0
-420 0
-421 0
-422 0
-423 0
-424 0
-425 0
-426 0
-427 0
-428 0
-429 0
-430 0
-431 0
-432 0
-433 0
-434 0
-435 0
-436 0
-437 0
-438 0
-439 0
-440 0
-441 0
-442 0
-443 0
-444 0
-445 0
-446 0
-447 0
-448 0
-449 0
-450 0
-451 0
-452 0
-453 0
-454 0
-455 0
-456 0
-457 0
-458 0
-459 0
-464 0
-466 0
-467 0
-468 0
-469 0
-470 0
-471 0
-472 0
-473 0
-474 0
-475 0
-476 0
-477 0
-478 0
-479 0
-480 0
-481 0
-482 0
-484 0
-485 0
-486 0
-487 0
-488 0
-489 0
-490 0
-491 0
-492 0
-493 0
-494 0
-495 0
-496 0
-497 0
-498 0
-499 0
-500 0
-501 0
-502 0
-503 0
-504 0
-505 0
-506 0
-507 0
-508 0
-509 0
-510 0
-511 0
-512 0
-513 0
-514 0
-515 0
-516 0
-517 0
-518 0
-519 0
-520 0
-521 0
-522 0
-523 0
-524 0
-525 0
-526 0
-527 0
-528 0
-529 0
-530 0
-531 0
-532 0
-533 0
-534 0
-535 0
-536 0
-537 0
-538 0
-539 0
-540 0
-541 0
-542 0
-543 0
-544 0
-545 0
-546 0
-547 0
-548 0
-549 0
-550 0
-551 0
-552 0
-553 0
-554 0
-555 0
-556 0
-557 0
-558 0
-559 0
-560 0
-561 0
-562 0
-563 0
-564 0
-565 0
-566 0
-567 0
-568 0
-569 0
-570 0
-571 0
-572 0
-573 0
-574 0
-575 0
-576 0
-577 0
578 0
-579 0
-580 0
-581 0
-582 0
-583 0
-584 0
-585 0
-586 0
-587 0
-588 0
-589 0
-590 0
-591 0
-592 0
-593 0
-594 0
-595 0
-596 0
-597 0
-598 0
-599 0
-600 0
-601 0
-602 0
-603 0
-604 0
-605 0
-606 0
-607 0
-608 0
-609 0
-610 0
-611 0
-612 0
-613 0
-614 0
-615 0
-616 0
-617 0
-618 0
-619 0
-620 0
-621 0
-622 0
-623 0
-624 0
-625 0
-626 0
-627 0
-628 0
-629 0
-630 0
-631 0
-632 0
-633 0
-634 0
-635 0
-636 0
-637 0
-638 0
-639 0
-640 0
641 0
-642 0
-643 0
-644 0
-645 0
-646 0
-647 0
-648 0
-649 0
-650 0
-651 0
-652 0
-653 0
-654 0
-655 0
-656 0
-657 0
-658 0
-659 0
-660 0
-661 0
-662 0
-663 0
-664 0
-665 0
-666 0
-667 0
-668 0
669 0
-670 0
-671 0
-672 0
-673 0
-674 0
-675 0
-676 0
-677 0
-678 0
-679 0
-680 0
-681 0
-682 0
-683 0
-684 0
-685 0
-686 0
-687 0
-688 0
-689 0
-690 0
-691 0
-692 0
-693 0
-694 0
-695 0
-696 0
-697 0
-698 0
-699 0
-700 0
-701 0
-702 0
-703 0
-704 0
-705 0
-706 0
-707 0
-708 0
-709 0
-710 0
-711 0
-712 0
-713 0
-714 0
-715 0
-716 0
-717 0
-718 0
-719 0
-720 0
-721 0
-722 0
-723 0
-724 0
-725 0
-726 0
-727 0
-728 0
-729 0
730 0
731 0
732 0
-733 0
737 0
-738 0
-742 0
746 0
749 0
-750 0
753 0
754 0
756 0
792 0
-801 0
809 0
817 0
-853 0
854 0
855 0
-856 0
857 0
858 0
859 0
-868 0
897 0
935 0
964 0
1077 0
-1203 0
1204 0
1205 0
1206 0
1207 0
1209 0
1210 0
1211 0
1212 0
1213 0
1214 0
1215 0
1216 0
1217 0
1218 0
1219 0
1220 0
1221 0
1222 0
1223 0
1224 0
1225 0
1226 0
1227 0
1228 0
1229 0
1230 0
1231 0
1232 0
1233 0
1234 0
1235 0
1236 0
1237 0
1238 0
1239 0
1240 0
1241 0
1242 0
1243 0
1244 0
1245 0
1246 0
1247 0
1248 0
1249 0
1250 0
1251 0
1252 0
1253 0
1254 0
1255 0
1256 0
1257 0
1258 0
1259 0
1260 0
1261 0
1262 0
1263 0
1264 0
1265 0
1266 0
1267 0
1268 0
1269 0
1270 0
1272 0
1273 0
1274 0
1275 0
1276 0
1277 0
1278 0
1279 0
1280 0
1281 0
1282 0
1283 0
1284 0
1285 0
1287 0
1288 0
1289 0
1290 0
1292 0
1293 0
1294 0
1295 0
1296 0
1297 0
1298 0
1299 0
1301 0
1302 0
1303 0
1304 0
1305 0
1306 0
1307 0
1309 0
1310 0
1311 0
1312 0
1317 0
1357 0
1358 0
1359 0
1360 0
1361 0
1362 0
1363 0
1364 0
1365 0
1366 0
1367 0
1368 0
1369 0
1370 0
1371 0
1372 0
1373 0
1374 0
1375 0
1376 0
1377 0
1378 0
1379 0
1380 0
1381 0
1382 0
1383 0
1384 0
1385 0
1386 0
1387 0
1388 0
1389 0
1390 0
1391 0
1392 0
1393 0
1394 0
1395 0
1396 0
1397 0
1398 0
1399 0
1400 0
1401 0
1402 0
1403 0
1404 0
1405 0
1406 0
1407 0
1408 0
1409 0
1410 0
1411 0
1412 0
1413 0
1414 0
1415 0
1416 0
1417 0
1418 0
1419 0
1420 0
1421 0
1422 0
1423 0
1424 0
1425 0
1426 0
1427 0
1428 0
1429 0
1430 0
1431 0
1432 0
1433 0
1434 0
1435 0
1436 0
1437 0
1438 0
1439 0
1440 0
1441 0
1442 0
1443 0
1444 0
1445 0
1446 0
1447 0
1448 0
1449 0
1450 0
1451 0
1452 0
1453 0
1454 0
1455 0
1456 0
1457 0
1458 0
1459 0
1460 0
1461 0
1462 0
1463 0
1464 0
1465 0
1466 0
1467 0
1468 0
1469 0
1470 0
1471 0
1472 0
1473 0
1474 0
1475 0
1476 0
1477 0
1478 0
1479 0
1480 0
1481 0
1482 0
1483 0
1484 0
1485 0
1492 0
1521 0
1535 0
1536 0
1537 0
1538 0
1539 0
1540 0
1541 0
1542 0
1543 0
1544 0
1545 0
1546 0
1547 0
1548 0
1549 0
1550 0
1551 0
1552 0
-1553 0
1554 0
1555 0
1556 0
1557 0
1558 0
1559 0
1560 0
1561 0
1562 0
1563 0
1564 0
1565 0
1566 0
1567 0
1568 0
1569 0
1570 0
1571 0
1572 0
1573 0
1574 0
1575 0
1576 0
1577 0
1578 0
1579 0
1580 0
-1581 0
1582 0
1583 0
1584 0
1585 0
1586 0
1587 0
1588 0
1589 0
1590 0
1591 0
1592 0
1593 0
1594 0
1595 0
1596 0
1597 0
1598 0
1599 0
1600 0
1601 0
1602 0
1603 0
1604 0
1605 0
1606 0
1607 0
1608 0
-1609 0
1610 0
1611 0
1612 0
1613 0
1614 0
1615 0
1616 0
1617 0
1618 0
1619 0
1620 0
1621 0
1622 0
1623 0
1624 0
1625 0
1626 0
1627 0
1628 0
1629 0
1630 0
1631 0
1632 0
1633 0
1634 0
1635 0
1636 0
1637 0
1638 0
1639 0
1640 0
1641 0
1642 0
1643 0
1644 0
1645 0
1646 0
1647 0
1648 0
1649 0
1650 0
1651 0
1652 0
1653 0
1654 0
1655 0
1656 0
1657 0
1658 0
2443 0
-2444 0
-2445 0
-2446 0
-2447 0
-2448 0
-2449 0
-2450 0
-2451 0
-2452 0
-2453 0
-2454 0
-2455 0
-2456 0
-2457 0
-2458 0
-2459 0
-2460 0
-2461 0
-2462 0
-2463 0
-2464 0
-2465 0
-2466 0
-2467 0
-2468 0
-2469 0
-2470 0
-2471 0
-2472 0
-2473 0
-2474 0
-2475 0
-2476 0
-2477 0
-2478 0
-2479 0
-2480 0
-2481 0
-2482 0
-2483 0
-2484 0
-2485 0
-2486 0
-2487 0
-2488 0
-2489 0
-2490 0
-2491 0
-2492 0
-2493 0
-2494 0
-2495 0
-2496 0
-2497 0
-2498 0
-2499 0
-2500 0
-2501 0
-2502 0
-2503 0
-2504 0
-2505 0
-2506 0
-2507 0
-2508 0
-2509 0
-2510 0
-2511 0
-2512 0
-2513 0
-2514 0
-2515 0
-2516 0
-2517 0
-2518 0
-2519 0
-2520 0
-2521 0
-2522 0
-2523 0
-2524 0
-2525 0
-2526 0
-2527 0
-2528 0
-2529 0
-2530 0
-2531 0
-2532 0
-2533 0
-2534 0
-2535 0
-2536 0
-2541 0
-2543 0
-2544 0
-2545 0
-2546 0
-2547 0
-2548 0
-2549 0
-2550 0
-2551 0
-2552 0
-2553 0
-2554 0
-2555 0
-2556 0
-2557 0
-2558 0
-2559 0
-2561 0
-2562 0
-2563 0
-2564 0
-2565 0
-2566 0
-2567 0
-2568 0
-2569 0
-2570 0
-2571 0
-2572 0
-2573 0
-2574 0
-2575 0
-2576 0
-2577 0
-2578 0
-2579 0
-2580 0
-2581 0
-2582 0
-2583 0
-2584 0
-2585 0
-2586 0
-2587 0
-2588 0
-2589 0
-2590 0
-2591 0
-2592 0
-2593 0
-2594 0
-2595 0
-2596 0
-2597 0
-2598 0
-2599 0
-2600 0
-2601 0
-2602 0
-2603 0
-2604 0
-2605 0
-2606 0
-2607 0
-2608 0
-2609 0
-2610 0
-2611 0
-2612 0
-2613 0
-2614 0
-2615 0
-2616 0
-2617 0
-2618 0
-2619 0
-2620 0
-2621 0
-2622 0
-2623 0
-2624 0
-2625 0
-2626 0
-2627 0
-2628 0
-2629 0
-2630 0
-2631 0
-2632 0
-2633 0
-2634 0
-2635 0
-2636 0
-2637 0
-2638 0
-2639 0
-2640 0
-2641 0
-2642 0
-2643 0
-2644 0
-2645 0
-2646 0
-2647 0
-2648 0
-2649 0
-2650 0
-2651 0
-2652 0
-2653 0
-2654 0
-2655 0
-2656 0
-2657 0
-2658 0
-2659 0
-2660 0
-2661 0
-2662 0
-2663 0
-2664 0
-2665 0
-2666 0
-2667 0
-2668 0
-2669 0
-2670 0
-2671 0
-2672 0
-2673 0
-2674 0
-2675 0
-2676 0
-2677 0
-2678 0
-2679 0
-2680 0
-2681 0
-2682 0
-2683 0
-2684 0
-2685 0
-2686 0
-2687 0
-2688 0
-2689 0
-2690 0
-2691 0
-2692 0
-2693 0
-2694 0
-2695 0
-2696 0
-2697 0
-2698 0
-2699 0
-2700 0
-2701 0
-2702 0
-2703 0
-2704 0
-2705 0
-2706 0
-2707 0
-2708 0
-2709 0
-2710 0
-2711 0
-2712 0
-2713 0
-2714 0
-2715 0
-2716 0
-2717 0
-2718 0
-2719 0
-2720 0
-2721 0
-2722 0
-2723 0
-2724 0
-2725 0
-2726 0
-2727 0
-2728 0
-2729 0
-2730 0
-2731 0
-2732 0
-2733 0
-2734 0
-2735 0
-2736 0
-2737 0
-2738 0
-2739 0
-2740 0
-2741 0
-2742 0
-2743 0
-2744 0
-2745 0
-2746 0
-2747 0
-2748 0
-2749 0
-2750 0
-2751 0
-2752 0
-2753 0
-2754 0
-2755 0
-2756 0
-2757 0
-2758 0
-2759 0
-2760 0
-2761 0
-2762 0
-2763 0
-2764 0
-2765 0
-2766 0
-2767 0
-2768 0
-2769 0
-2770 0
-2771 0
-2772 0
-2773 0
-2774 0
-2775 0
-2776 0
-2777 0
-2778 0
-2779 0
-2780 0
-2781 0
-2782 0
-2783 0
-2784 0
-2785 0
-2786 0
-2787 0
-2788 0
-2789 0
-2790 0
-2791 0
-2792 0
-2793 0
-2794 0
-2795 0
-2796 0
-2797 0
-2798 0
-2799 0
-2800 0
-2801 0
-2802 0
-2803 0
-2804 0
-2805 0
-2806 0
-1705 0
-1706 0
-1707 0
-1708 0
-1709 0
-1710 0
-1711 0
-1712 0
-1713 0
-1714 0
-1715 0
-1716 0
-1717 0
-1718 0
-1719 0
-1720 0
-1721 0
-1722 0
-1723 0
-1724 0
-1725 0
-1726 0
-1727 0
-1728 0
-1729 0
-1730 0
-1731 0
-1732 0
-1733 0
-1734 0
-1735 0
-1736 0
-1737 0
-1738 0
-1739 0
-1740 0
-1741 0
-1742 0
-1743 0
-1744 0
-1745 0
-1746 0
-1747 0
-1748 0
-1749 0
-1750 0
-1751 0
-1752 0
-1753 0
-1754 0
-1921 0
-1922 0
-1923 0
-1924 0
-1925 0
-1926 0
-1927 0
-1928 0
-1929 0
-1930 0
-1931 0
-1932 0
-1933 0
-1934 0
-1935 0
-1936 0
-1937 0
-1938 0
-1939 0
-1940 0
-1941 0
-1942 0
-1943 0
-1944 0
-1945 0
-1946 0
-1947 0
-1948 0
-1949 0
-1950 0
-1951 0
-1873 0
-1952 0
-1802 0
-1803 0
-1953 0
-1804 0
-1954 0
-1805 0
-1955 0
-2119 0
-2120 0
-2121 0
-2122 0
-2123 0
-2124 0
-2125 0
-2126 0
-2127 0
-2128 0
-2129 0
-2130 0
-2131 0
-2132 0
-2133 0
-1956 0
-1957 0
-2134 0
-2135 0
-1958 0
-1959 0
-2136 0
-2137 0
-2138 0
-2139 0
-2140 0
-1960 0
-1755 0
-1756 0
-1757 0
-1758 0
-1759 0
-1760 0
-1961 0
-1761 0
-1762 0
-1962 0
-1763 0
-1764 0
-1765 0
-1963 0
-1801 0
-1964 0
-1766 0
-1767 0
-1768 0
-1769 0
-1770 0
-1771 0
-1772 0
-1965 0
-1773 0
-1774 0
-1775 0
-1966 0
-1967 0
-1776 0
-2097 0
-2098 0
-2099 0
-1968 0
-1969 0
-2100 0
-2101 0
-2102 0
-2103 0
-2104 0
-2105 0
-2106 0
-2107 0
-2108 0
-2109 0
-2110 0
-2111 0
-2112 0
-2113 0
-1970 0
-2114 0
-1971 0
-2115 0
-2116 0
-2117 0
-1972 0
-2118 0
-1973 0
-1851 0
-1852 0
-1853 0
-1854 0
-1855 0
-1856 0
-1857 0
-1974 0
-1858 0
-1874 0
-1859 0
-1860 0
-1861 0
-1975 0
-1862 0
-1976 0
-1863 0
-1864 0
-1865 0
-1977 0
-1978 0
-1866 0
-1867 0
-1868 0
-1869 0
-1870 0
-1871 0
-1872 0
-1777 0
-1778 0
-1979 0
-1980 0
-1779 0
-1780 0
-1781 0
-1782 0
-1783 0
-1981 0
-1784 0
-1785 0
-1786 0
-1787 0
-1788 0
-1789 0
-1790 0
-1791 0
-1792 0
-1982 0
-1793 0
-1794 0
-1795 0
-1983 0
-1796 0
-1984 0
-1797 0
-1798 0
-1985 0
-1876 0
-1877 0
-1986 0
-1878 0
-1879 0
-1875 0
-1880 0
-1881 0
-1882 0
-1883 0
-1884 0
-1885 0
-1886 0
-1887 0
-1888 0
-1889 0
-1890 0
-1891 0
-1892 0
-1893 0
-1894 0
-1895 0
-1896 0
-1897 0
-1898 0
-1899 0
-1900 0
-1901 0
-1902 0
-1903 0
-1904 0
-1905 0
-1906 0
-1907 0
-1908 0
-1909 0
-1910 0
-1911 0
-1912 0
-1913 0
-1914 0
-1915 0
-1916 0
-1917 0
-1918 0
-1919 0
-1920 0
-1806 0
-1807 0
-1808 0
-1809 0
-1810 0
-1811 0
-1812 0
-1813 0
-1814 0
-1815 0
-1816 0
-1817 0
-1818 0
-1819 0
-1820 0
-1821 0
-1822 0
-1823 0
-1824 0
-1825 0
-1826 0
-1827 0
-1828 0
-1829 0
-1830 0
-1831 0
-1832 0
-1833 0
-1834 0
-1835 0
-1799 0
-1836 0
-1837 0
-1838 0
-1839 0
-1840 0
-1841 0
-1842 0
-1843 0
-1844 0
-1845 0
-1846 0
-1847 0
-1848 0
-1849 0
-1850 0
-1659 0
-1660 0
-1661 0
-1662 0
-1663 0
-1664 0
-1665 0
-1666 0
-1667 0
-1668 0
-1669 0
-1670 0
-1671 0
-1672 0
-1673 0
-1674 0
-1675 0
-1676 0
-1677 0
-1678 0
-1679 0
-1680 0
-1681 0
-1682 0
-1800 0
-1683 0
-1684 0
-1685 0
-1686 0
-1687 0
-1688 0
-1689 0
-1690 0
-1691 0
-1692 0
-1693 0
-1694 0
-1695 0
-1696 0
-1697 0
-1698 0
-1699 0
-1700 0
-1701 0
-1702 0
-1703 0
-2270 0
-2271 0
-2272 0
-2273 0
-2274 0
-2275 0
-2276 0
-2277 0
-2278 0
-2279 0
-2280 0
-2281 0
-2282 0
-2283 0
-2284 0
-2285 0
-2286 0
-2287 0
-2288 0
-2289 0
-2290 0
-2291 0
-2292 0
-2293 0
-2294 0
-2295 0
-2296 0
-2297 0
-2298 0
-2299 0
-2300 0
-2301 0
-2302 0
-2303 0
-2304 0
-2305 0
-2306 0
-2307 0
-2308 0
-2309 0
-2310 0
-2311 0
-2312 0
-2313 0
-2314 0
-2315 0
-2316 0
-2317 0
-2318 0
-1704 0

